
Gurobi 10.0.3 (linux64, gurobi_cl) logging started Fri Nov 10 22:01:39 2023

Set parameter Username
Set parameter TimeLimit to value 3600
Set parameter LogFile to value "RCPSP_1991.log"
Set parameter Threads to value 32
Academic license - for non-commercial use only - expires 2024-10-30
Using license file /home/jrivera6/gurobi-licenses/v1003/compute-0-34/gurobi.lic

Gurobi Optimizer version 10.0.3 build v10.0.3rc0 (linux64)
Copyright (c) 2023, Gurobi Optimization, LLC

Read MPS format model from file RCPSP_1991.mps
Reading time = 0.11 seconds
RCPSP_1991: 75288 rows, 29890 columns, 280622 nonzeros

CPU model: Intel(R) Xeon(R) Gold 6130 CPU @ 2.10GHz, instruction set [SSE2|AVX|AVX2|AVX512]
Thread count: 32 physical cores, 32 logical processors, using up to 32 threads

Optimize a model with 75288 rows, 29890 columns and 280622 nonzeros
Model fingerprint: 0x1c683d2f
Variable types: 122 continuous, 29768 integer (29768 binary)
Coefficient statistics:
  Matrix range     [1e+00, 6e+02]
  Objective range  [1e+00, 1e+00]
  Bounds range     [1e+00, 1e+00]
  RHS range        [1e+00, 6e+02]
Presolve removed 20526 rows and 5615 columns (presolve time = 5s) ...
Presolve removed 20526 rows and 5615 columns (presolve time = 10s) ...
Presolve removed 20526 rows and 5615 columns (presolve time = 15s) ...
Presolve removed 24720 rows and 7136 columns
Presolve time: 16.30s
Presolved: 50568 rows, 22754 columns, 195637 nonzeros
Variable types: 121 continuous, 22633 integer (22633 binary)

Deterministic concurrent LP optimizer: primal and dual simplex (primal and dual model)
Showing first log only...

Root relaxation presolved: 50561 rows, 22761 columns, 195623 nonzeros


Root simplex log...

Iteration    Objective       Primal Inf.    Dual Inf.      Time
       0    9.5986414e+01   8.267861e-03   2.105400e+08     18s
    3125    9.5000000e+01   0.000000e+00   0.000000e+00     19s
    3125    9.5000000e+01   0.000000e+00   0.000000e+00     19s
Concurrent spin time: 1.14s

Solved with dual simplex (primal model)

Root relaxation: objective 9.500000e+01, 7434 iterations, 3.39 seconds (0.34 work units)
Total elapsed time = 25.92s

    Nodes    |    Current Node    |     Objective Bounds      |     Work
 Expl Unexpl |  Obj  Depth IntInf | Incumbent    BestBd   Gap | It/Node Time

     0     0   95.00000    0 1215          -   95.00000      -     -   46s
     0     0   98.00000    0 1123          -   98.00000      -     -   47s
     0     0   99.71831    0 1533          -   99.71831      -     -  104s
     0     0  100.40564    0 1709          -  100.40564      -     -  126s
     0     0  100.40564    0 1599          -  100.40564      -     -  129s
     0     0  100.40564    0 1575          -  100.40564      -     -  130s
     0     0  100.73913    0 1672          -  100.73913      -     -  139s
     0     0  100.73913    0 1637          -  100.73913      -     -  145s
     0     0  100.73913    0 1575          -  100.73913      -     -  146s
     0     0  102.20000    0 1752          -  102.20000      -     -  158s
     0     0  102.20000    0 1734          -  102.20000      -     -  161s
     0     0  102.20000    0 1712          -  102.20000      -     -  162s
     0     0  103.00000    0 1750          -  103.00000      -     -  191s
     0     0  103.00000    0 1753          -  103.00000      -     -  193s
H    0     0                     623.0000000  103.00000  83.5%     -  193s
     0     0  103.00000    0 1806  623.00000  103.00000  83.5%     -  196s
     0     0  103.00000    0 1068  623.00000  103.00000  83.5%     -  261s
     0     0  103.00000    0 1058  623.00000  103.00000  83.5%     -  261s
     0     0  103.00000    0 1516  623.00000  103.00000  83.5%     -  281s
     0     0  103.00000    0 1496  623.00000  103.00000  83.5%     -  281s
H    0     0                     569.0000000  103.00000  81.9%     -  306s
H    0     0                     564.0000000  103.00000  81.7%     -  307s
     0     0  103.00000    0 1576  564.00000  103.00000  81.7%     -  309s
     0     0  103.00000    0 1574  564.00000  103.00000  81.7%     -  309s
     0     0  103.00000    0 1698  564.00000  103.00000  81.7%     -  313s
     0     0  103.00000    0 1622  564.00000  103.00000  81.7%     -  314s
H    0     0                     531.9999999  103.00000  80.6%     -  316s
     0     0  105.56218    0 1128  532.00000  105.56218  80.2%     -  342s
     0     0  105.56218    0 1091  532.00000  105.56218  80.2%     -  342s
H    0     0                     489.0000000  105.56218  78.4%     -  361s
     0     0  106.20000    0 1276  489.00000  106.20000  78.3%     -  362s
     0     0  106.20000    0 1268  489.00000  106.20000  78.3%     -  363s
     0     0  106.24741    0 1377  489.00000  106.24741  78.3%     -  372s
     0     0  106.24741    0 1376  489.00000  106.24741  78.3%     -  374s
     0     0  106.24741    0 1375  489.00000  106.24741  78.3%     -  374s
     0     0  106.24741    0 1448  489.00000  106.24741  78.3%     -  386s
     0     0  106.24741    0 1439  489.00000  106.24741  78.3%     -  389s
     0     0  106.24741    0 1502  489.00000  106.24741  78.3%     -  391s
     0     0  106.24741    0 1495  489.00000  106.24741  78.3%     -  391s
H    0     0                     454.0000000  106.24741  76.6%     -  399s
     0     0  106.47845    0 1442  454.00000  106.47845  76.5%     -  405s
     0     0  106.47845    0 1399  454.00000  106.47845  76.5%     -  405s
     0     0  106.47845    0 1574  454.00000  106.47845  76.5%     -  436s
     0     0  106.47845    0 1459  454.00000  106.47845  76.5%     -  440s
     0     0  106.47845    0 1442  454.00000  106.47845  76.5%     -  443s
     0     0  106.47845    0 1374  454.00000  106.47845  76.5%     -  445s
     0     0  106.47845    0 1368  454.00000  106.47845  76.5%     -  445s
     0     0  106.53857    0 1479  454.00000  106.53857  76.5%     -  452s
     0     0  106.53857    0 1420  454.00000  106.53857  76.5%     -  452s
     0     0  106.53857    0 1512  454.00000  106.53857  76.5%     -  458s
     0     0  106.53857    0 1362  454.00000  106.53857  76.5%     -  459s
     0     0  106.53857    0 1353  454.00000  106.53857  76.5%     -  460s
     0     0  106.53857    0 1432  454.00000  106.53857  76.5%     -  465s
     0     0  106.53857    0 1323  454.00000  106.53857  76.5%     -  466s
     0     0  106.53857    0 1321  454.00000  106.53857  76.5%     -  466s
     0     0  106.53857    0 1420  454.00000  106.53857  76.5%     -  471s
     0     0  106.53857    0 1437  454.00000  106.53857  76.5%     -  473s
     0     0  106.53857    0 1409  454.00000  106.53857  76.5%     -  474s
     0     0  106.53857    0 1185  454.00000  106.53857  76.5%     -  495s
     0     0  106.53857    0 1453  454.00000  106.53857  76.5%     -  514s
     0     0  106.53857    0 1427  454.00000  106.53857  76.5%     -  514s
H    0     0                     429.0000000  106.53857  75.2%     -  542s
     0     0  106.53857    0 1155  429.00000  106.53857  75.2%     -  552s
     0     0  106.53857    0 1149  429.00000  106.53857  75.2%     -  552s
H    0     0                     401.0000000  106.53857  73.4%     -  561s
     0     0  106.53857    0 1384  401.00000  106.53857  73.4%     -  570s
     0     0  106.53857    0 1342  401.00000  106.53857  73.4%     -  572s
     0     0  106.53857    0 1347  401.00000  106.53857  73.4%     -  572s
     0     0  106.53857    0 1117  401.00000  106.53857  73.4%     -  594s
     0     0  106.53857    0 1111  401.00000  106.53857  73.4%     -  594s
H    0     0                     386.0000000  106.53857  72.4%     -  660s
     0     0  106.54913    0 1420  386.00000  106.54913  72.4%     -  684s
     0     0  106.54913    0 1433  386.00000  106.54913  72.4%     -  686s
     0     0  106.54913    0 1412  386.00000  106.54913  72.4%     -  686s
     0     0  106.54913    0 1404  386.00000  106.54913  72.4%     -  696s
     0     0  106.54913    0 1338  386.00000  106.54913  72.4%     -  697s
     0     0  106.54913    0 1202  386.00000  106.54913  72.4%     -  730s
     0     0  106.54913    0 1175  386.00000  106.54913  72.4%     -  731s
H    0     0                     384.0000000  106.54913  72.3%     -  750s
     0     0  106.54913    0 1014  384.00000  106.54913  72.3%     - 1105s
H    0     0                     376.0000000  106.54913  71.7%     - 1138s
     0     2  106.54913    0  966  376.00000  106.54913  71.7%     - 1350s
     1     4  106.61274    1  961  376.00000  106.61274  71.6%  5059 1457s
     3     6  107.20000    2 1258  376.00000  106.84000  71.6%  2687 1520s
     7    12  107.20000    3 1578  376.00000  107.20000  71.5%  2198 2045s
     9    12  107.20000    3 1578  376.00000  107.20000  71.5%  2474 2057s
    13    12  107.20000    4 1689  376.00000  107.20000  71.5%  2873 2618s
    25    14  107.20000    5 1562  376.00000  107.20000  71.5%  2315 2735s
H   37    22                     368.0000000  107.20000  70.9%  1807 3796s
H   38    22                     363.0000000  107.20000  70.5%  1890 3800s
H   41    22                     358.0000000  107.20000  70.1%  1999 3804s
    42    22  108.20000    6 1533  358.00000  107.20000  70.1%  2061 3805s

Cutting planes:
  Learned: 28
  Gomory: 29
  Cover: 296
  Implied bound: 625
  Clique: 67
  MIR: 3386
  StrongCG: 48
  Inf proof: 3
  Zero half: 8
  RLT: 1772
  Relax-and-lift: 488

Explored 51 nodes (320178 simplex iterations) in 3963.15 seconds (164.53 work units)
Thread count was 32 (of 32 available processors)

Solution count 10: 358 363 368 ... 489

Time limit reached
Best objective 3.580000000000e+02, best bound 1.072000000000e+02, gap 70.0559%

Wrote result file 'RCPSP_1991.sol'

